mixintcount/benchmarks/random_v2l/8_8_28.in
32 10
#	x1	x2	x3	x4	x5	x6	x7	x8;		0 = Real; 1 = Integer
	1	1	1	1	1	1	1	1
1	9	8	4	-4	-5	-4	10	4	-5
1	-9	8	-9	-5	-8	5	-5	-3	19
1	10	6	3	5	1	4	0	3	-13
1	8	-9	2	-9	8	-2	3	-9	16
1	9	-9	-8	-3	-10	-10	-4	-6	28
1	-9	-1	-5	7	-4	9	-3	-10	-4
1	-9	-2	-10	3	-4	-9	-7	-5	-27
1	-1	8	9	8	6	8	10	-10	-20
1	10	-3	10	10	-4	-2	-8	-10	-25
1	-9	-3	3	-1	-4	-10	-1	8	-25
1	-2	-10	-3	-6	-3	-6	-8	-6	9
1	10	-9	9	6	-9	-7	5	9	23
1	-9	-9	-1	3	-8	4	-7	1	17
1	-8	8	8	-6	-5	6	2	-1	-16
1	4	0	-6	2	-3	-5	-2	-8	-13
1	1	6	-9	10	5	-8	-4	-5	27
1	1	0	0	0	0	0	0	0	28
1	-1	0	0	0	0	0	0	0	28
1	0	1	0	0	0	0	0	0	28
1	0	-1	0	0	0	0	0	0	28
1	0	0	1	0	0	0	0	0	28
1	0	0	-1	0	0	0	0	0	28
1	0	0	0	1	0	0	0	0	28
1	0	0	0	-1	0	0	0	0	28
1	0	0	0	0	1	0	0	0	28
1	0	0	0	0	-1	0	0	0	28
1	0	0	0	0	0	1	0	0	28
1	0	0	0	0	0	-1	0	0	28
1	0	0	0	0	0	0	1	0	28
1	0	0	0	0	0	0	-1	0	28
1	0	0	0	0	0	0	0	1	28
1	0	0	0	0	0	0	0	-1	28
